unsat
(define-fun f ((x0 (BitVec 64))) (BitVec 64) (bvmul x0 #b0000000000000000000000000000000000000000000000000000000000001000))
(define-fun f ((x0 (BitVec 64))) (BitVec 64) (bvmul x0 #b0000000000000000000000000000000000000000000000000000000000001000))
int-arith16.sl running time : 0 m .023456378 s
times : .023456378
